c FILE: I5.clq
c
c SOURCE: Generated by Breno Maurício de Freitas Viana
c         writed
c
c           Graph Stats
c number of vertices  : 5
c number of edges     : 6
p col 5 6
e 1 2
e 1 3
e 1 4
e 2 3
e 2 4
e 3 5